30
30
1
3
3600
577 624 656 742 982 1019 1126 1352 1432 1543 1551 1577 1634 1704 1715 1808 1903 1916 1962 2287 2343 2409 2427 2465 2567 2693 2712 2718 2888 2990 
37 39 15 6 32 33 34 34 9 14 6 16 32 15 5 28 17 39 37 5 18 20 37 19 27 11 21 16 26 5 
